benchmarks/ising_models/2DLattices/SqrLattices/J=1/13x13_square_lattice
ISING
169
2 2 2 2 2 2 2 2 2 2 2 2 2 2 2 2 2 2 2 2 2 2 2 2 2 2 2 2 2 2 2 2 2 2 2 2 2 2 2 2 2 2 2 2 2 2 2 2 2 2 2 2 2 2 2 2 2 2 2 2 2 2 2 2 2 2 2 2 2 2 2 2 2 2 2 2 2 2 2 2 2 2 2 2 2 2 2 2 2 2 2 2 2 2 2 2 2 2 2 2 2 2 2 2 2 2 2 2 2 2 2 2 2 2 2 2 2 2 2 2 2 2 2 2 2 2 2 2 2 2 2 2 2 2 2 2 2 2 2 2 2 2 2 2 2 2 2 2 2 2 2 2 2 2 2 2 2 2 2 2 2 2 2 2 2 2 2 2 2
0 312 1 1
2 0 1
2 0 13
2 1 2
2 1 14
2 2 3
2 2 15
2 3 4
2 3 16
2 4 5
2 4 17
2 5 6
2 5 18
2 6 7
2 6 19
2 7 8
2 7 20
2 8 9
2 8 21
2 9 10
2 9 22
2 10 11
2 10 23
2 11 12
2 11 24
2 12 25
2 13 14
2 13 26
2 14 15
2 14 27
2 15 16
2 15 28
2 16 17
2 16 29
2 17 18
2 17 30
2 18 19
2 18 31
2 19 20
2 19 32
2 20 21
2 20 33
2 21 22
2 21 34
2 22 23
2 22 35
2 23 24
2 23 36
2 24 25
2 24 37
2 25 38
2 26 27
2 26 39
2 27 28
2 27 40
2 28 29
2 28 41
2 29 30
2 29 42
2 30 31
2 30 43
2 31 32
2 31 44
2 32 33
2 32 45
2 33 34
2 33 46
2 34 35
2 34 47
2 35 36
2 35 48
2 36 37
2 36 49
2 37 38
2 37 50
2 38 51
2 39 40
2 39 52
2 40 41
2 40 53
2 41 42
2 41 54
2 42 43
2 42 55
2 43 44
2 43 56
2 44 45
2 44 57
2 45 46
2 45 58
2 46 47
2 46 59
2 47 48
2 47 60
2 48 49
2 48 61
2 49 50
2 49 62
2 50 51
2 50 63
2 51 64
2 52 53
2 52 65
2 53 54
2 53 66
2 54 55
2 54 67
2 55 56
2 55 68
2 56 57
2 56 69
2 57 58
2 57 70
2 58 59
2 58 71
2 59 60
2 59 72
2 60 61
2 60 73
2 61 62
2 61 74
2 62 63
2 62 75
2 63 64
2 63 76
2 64 77
2 65 66
2 65 78
2 66 67
2 66 79
2 67 68
2 67 80
2 68 69
2 68 81
2 69 70
2 69 82
2 70 71
2 70 83
2 71 72
2 71 84
2 72 73
2 72 85
2 73 74
2 73 86
2 74 75
2 74 87
2 75 76
2 75 88
2 76 77
2 76 89
2 77 90
2 78 79
2 78 91
2 79 80
2 79 92
2 80 81
2 80 93
2 81 82
2 81 94
2 82 83
2 82 95
2 83 84
2 83 96
2 84 85
2 84 97
2 85 86
2 85 98
2 86 87
2 86 99
2 87 88
2 87 100
2 88 89
2 88 101
2 89 90
2 89 102
2 90 103
2 91 92
2 91 104
2 92 93
2 92 105
2 93 94
2 93 106
2 94 95
2 94 107
2 95 96
2 95 108
2 96 97
2 96 109
2 97 98
2 97 110
2 98 99
2 98 111
2 99 100
2 99 112
2 100 101
2 100 113
2 101 102
2 101 114
2 102 103
2 102 115
2 103 116
2 104 105
2 104 117
2 105 106
2 105 118
2 106 107
2 106 119
2 107 108
2 107 120
2 108 109
2 108 121
2 109 110
2 109 122
2 110 111
2 110 123
2 111 112
2 111 124
2 112 113
2 112 125
2 113 114
2 113 126
2 114 115
2 114 127
2 115 116
2 115 128
2 116 129
2 117 118
2 117 130
2 118 119
2 118 131
2 119 120
2 119 132
2 120 121
2 120 133
2 121 122
2 121 134
2 122 123
2 122 135
2 123 124
2 123 136
2 124 125
2 124 137
2 125 126
2 125 138
2 126 127
2 126 139
2 127 128
2 127 140
2 128 129
2 128 141
2 129 142
2 130 131
2 130 143
2 131 132
2 131 144
2 132 133
2 132 145
2 133 134
2 133 146
2 134 135
2 134 147
2 135 136
2 135 148
2 136 137
2 136 149
2 137 138
2 137 150
2 138 139
2 138 151
2 139 140
2 139 152
2 140 141
2 140 153
2 141 142
2 141 154
2 142 155
2 143 144
2 143 156
2 144 145
2 144 157
2 145 146
2 145 158
2 146 147
2 146 159
2 147 148
2 147 160
2 148 149
2 148 161
2 149 150
2 149 162
2 150 151
2 150 163
2 151 152
2 151 164
2 152 153
2 152 165
2 153 154
2 153 166
2 154 155
2 154 167
2 155 168
2 156 157
2 157 158
2 158 159
2 159 160
2 160 161
2 161 162
2 162 163
2 163 164
2 164 165
2 165 166
2 166 167
2 167 168

4
 1 -1
 -1 1
4
 1 -1
 -1 1
4
 1 -1
 -1 1
4
 1 -1
 -1 1
4
 1 -1
 -1 1
4
 1 -1
 -1 1
4
 1 -1
 -1 1
4
 1 -1
 -1 1
4
 1 -1
 -1 1
4
 1 -1
 -1 1
4
 1 -1
 -1 1
4
 1 -1
 -1 1
4
 1 -1
 -1 1
4
 1 -1
 -1 1
4
 1 -1
 -1 1
4
 1 -1
 -1 1
4
 1 -1
 -1 1
4
 1 -1
 -1 1
4
 1 -1
 -1 1
4
 1 -1
 -1 1
4
 1 -1
 -1 1
4
 1 -1
 -1 1
4
 1 -1
 -1 1
4
 1 -1
 -1 1
4
 1 -1
 -1 1
4
 1 -1
 -1 1
4
 1 -1
 -1 1
4
 1 -1
 -1 1
4
 1 -1
 -1 1
4
 1 -1
 -1 1
4
 1 -1
 -1 1
4
 1 -1
 -1 1
4
 1 -1
 -1 1
4
 1 -1
 -1 1
4
 1 -1
 -1 1
4
 1 -1
 -1 1
4
 1 -1
 -1 1
4
 1 -1
 -1 1
4
 1 -1
 -1 1
4
 1 -1
 -1 1
4
 1 -1
 -1 1
4
 1 -1
 -1 1
4
 1 -1
 -1 1
4
 1 -1
 -1 1
4
 1 -1
 -1 1
4
 1 -1
 -1 1
4
 1 -1
 -1 1
4
 1 -1
 -1 1
4
 1 -1
 -1 1
4
 1 -1
 -1 1
4
 1 -1
 -1 1
4
 1 -1
 -1 1
4
 1 -1
 -1 1
4
 1 -1
 -1 1
4
 1 -1
 -1 1
4
 1 -1
 -1 1
4
 1 -1
 -1 1
4
 1 -1
 -1 1
4
 1 -1
 -1 1
4
 1 -1
 -1 1
4
 1 -1
 -1 1
4
 1 -1
 -1 1
4
 1 -1
 -1 1
4
 1 -1
 -1 1
4
 1 -1
 -1 1
4
 1 -1
 -1 1
4
 1 -1
 -1 1
4
 1 -1
 -1 1
4
 1 -1
 -1 1
4
 1 -1
 -1 1
4
 1 -1
 -1 1
4
 1 -1
 -1 1
4
 1 -1
 -1 1
4
 1 -1
 -1 1
4
 1 -1
 -1 1
4
 1 -1
 -1 1
4
 1 -1
 -1 1
4
 1 -1
 -1 1
4
 1 -1
 -1 1
4
 1 -1
 -1 1
4
 1 -1
 -1 1
4
 1 -1
 -1 1
4
 1 -1
 -1 1
4
 1 -1
 -1 1
4
 1 -1
 -1 1
4
 1 -1
 -1 1
4
 1 -1
 -1 1
4
 1 -1
 -1 1
4
 1 -1
 -1 1
4
 1 -1
 -1 1
4
 1 -1
 -1 1
4
 1 -1
 -1 1
4
 1 -1
 -1 1
4
 1 -1
 -1 1
4
 1 -1
 -1 1
4
 1 -1
 -1 1
4
 1 -1
 -1 1
4
 1 -1
 -1 1
4
 1 -1
 -1 1
4
 1 -1
 -1 1
4
 1 -1
 -1 1
4
 1 -1
 -1 1
4
 1 -1
 -1 1
4
 1 -1
 -1 1
4
 1 -1
 -1 1
4
 1 -1
 -1 1
4
 1 -1
 -1 1
4
 1 -1
 -1 1
4
 1 -1
 -1 1
4
 1 -1
 -1 1
4
 1 -1
 -1 1
4
 1 -1
 -1 1
4
 1 -1
 -1 1
4
 1 -1
 -1 1
4
 1 -1
 -1 1
4
 1 -1
 -1 1
4
 1 -1
 -1 1
4
 1 -1
 -1 1
4
 1 -1
 -1 1
4
 1 -1
 -1 1
4
 1 -1
 -1 1
4
 1 -1
 -1 1
4
 1 -1
 -1 1
4
 1 -1
 -1 1
4
 1 -1
 -1 1
4
 1 -1
 -1 1
4
 1 -1
 -1 1
4
 1 -1
 -1 1
4
 1 -1
 -1 1
4
 1 -1
 -1 1
4
 1 -1
 -1 1
4
 1 -1
 -1 1
4
 1 -1
 -1 1
4
 1 -1
 -1 1
4
 1 -1
 -1 1
4
 1 -1
 -1 1
4
 1 -1
 -1 1
4
 1 -1
 -1 1
4
 1 -1
 -1 1
4
 1 -1
 -1 1
4
 1 -1
 -1 1
4
 1 -1
 -1 1
4
 1 -1
 -1 1
4
 1 -1
 -1 1
4
 1 -1
 -1 1
4
 1 -1
 -1 1
4
 1 -1
 -1 1
4
 1 -1
 -1 1
4
 1 -1
 -1 1
4
 1 -1
 -1 1
4
 1 -1
 -1 1
4
 1 -1
 -1 1
4
 1 -1
 -1 1
4
 1 -1
 -1 1
4
 1 -1
 -1 1
4
 1 -1
 -1 1
4
 1 -1
 -1 1
4
 1 -1
 -1 1
4
 1 -1
 -1 1
4
 1 -1
 -1 1
4
 1 -1
 -1 1
4
 1 -1
 -1 1
4
 1 -1
 -1 1
4
 1 -1
 -1 1
4
 1 -1
 -1 1
4
 1 -1
 -1 1
4
 1 -1
 -1 1
4
 1 -1
 -1 1
4
 1 -1
 -1 1
4
 1 -1
 -1 1
4
 1 -1
 -1 1
4
 1 -1
 -1 1
4
 1 -1
 -1 1
4
 1 -1
 -1 1
4
 1 -1
 -1 1
4
 1 -1
 -1 1
4
 1 -1
 -1 1
4
 1 -1
 -1 1
4
 1 -1
 -1 1
4
 1 -1
 -1 1
4
 1 -1
 -1 1
4
 1 -1
 -1 1
4
 1 -1
 -1 1
4
 1 -1
 -1 1
4
 1 -1
 -1 1
4
 1 -1
 -1 1
4
 1 -1
 -1 1
4
 1 -1
 -1 1
4
 1 -1
 -1 1
4
 1 -1
 -1 1
4
 1 -1
 -1 1
4
 1 -1
 -1 1
4
 1 -1
 -1 1
4
 1 -1
 -1 1
4
 1 -1
 -1 1
4
 1 -1
 -1 1
4
 1 -1
 -1 1
4
 1 -1
 -1 1
4
 1 -1
 -1 1
4
 1 -1
 -1 1
4
 1 -1
 -1 1
4
 1 -1
 -1 1
4
 1 -1
 -1 1
4
 1 -1
 -1 1
4
 1 -1
 -1 1
4
 1 -1
 -1 1
4
 1 -1
 -1 1
4
 1 -1
 -1 1
4
 1 -1
 -1 1
4
 1 -1
 -1 1
4
 1 -1
 -1 1
4
 1 -1
 -1 1
4
 1 -1
 -1 1
4
 1 -1
 -1 1
4
 1 -1
 -1 1
4
 1 -1
 -1 1
4
 1 -1
 -1 1
4
 1 -1
 -1 1
4
 1 -1
 -1 1
4
 1 -1
 -1 1
4
 1 -1
 -1 1
4
 1 -1
 -1 1
4
 1 -1
 -1 1
4
 1 -1
 -1 1
4
 1 -1
 -1 1
4
 1 -1
 -1 1
4
 1 -1
 -1 1
4
 1 -1
 -1 1
4
 1 -1
 -1 1
4
 1 -1
 -1 1
4
 1 -1
 -1 1
4
 1 -1
 -1 1
4
 1 -1
 -1 1
4
 1 -1
 -1 1
4
 1 -1
 -1 1
4
 1 -1
 -1 1
4
 1 -1
 -1 1
4
 1 -1
 -1 1
4
 1 -1
 -1 1
4
 1 -1
 -1 1
4
 1 -1
 -1 1
4
 1 -1
 -1 1
4
 1 -1
 -1 1
4
 1 -1
 -1 1
4
 1 -1
 -1 1
4
 1 -1
 -1 1
4
 1 -1
 -1 1
4
 1 -1
 -1 1
4
 1 -1
 -1 1
4
 1 -1
 -1 1
4
 1 -1
 -1 1
4
 1 -1
 -1 1
4
 1 -1
 -1 1
4
 1 -1
 -1 1
4
 1 -1
 -1 1
4
 1 -1
 -1 1
4
 1 -1
 -1 1
4
 1 -1
 -1 1
4
 1 -1
 -1 1
4
 1 -1
 -1 1
4
 1 -1
 -1 1
4
 1 -1
 -1 1
4
 1 -1
 -1 1
4
 1 -1
 -1 1
4
 1 -1
 -1 1
4
 1 -1
 -1 1
4
 1 -1
 -1 1
4
 1 -1
 -1 1
4
 1 -1
 -1 1
4
 1 -1
 -1 1
4
 1 -1
 -1 1
4
 1 -1
 -1 1
4
 1 -1
 -1 1
4
 1 -1
 -1 1
4
 1 -1
 -1 1
4
 1 -1
 -1 1
4
 1 -1
 -1 1
4
 1 -1
 -1 1
4
 1 -1
 -1 1
4
 1 -1
 -1 1
4
 1 -1
 -1 1
4
 1 -1
 -1 1
4
 1 -1
 -1 1
4
 1 -1
 -1 1
4
 1 -1
 -1 1
4
 1 -1
 -1 1
4
 1 -1
 -1 1
4
 1 -1
 -1 1
4
 1 -1
 -1 1
4
 1 -1
 -1 1
4
 1 -1
 -1 1
4
 1 -1
 -1 1
4
 1 -1
 -1 1
4
 1 -1
 -1 1
4
 1 -1
 -1 1
4
 1 -1
 -1 1
4
 1 -1
 -1 1
4
 1 -1
 -1 1
4
 1 -1
 -1 1
4
 1 -1
 -1 1
4
 1 -1
 -1 1
4
 1 -1
 -1 1
4
 1 -1
 -1 1
4
 1 -1
 -1 1
4
 1 -1
 -1 1
4
 1 -1
 -1 1
4
 1 -1
 -1 1
4
 1 -1
 -1 1
4
 1 -1
 -1 1
4
 1 -1
 -1 1
4
 1 -1
 -1 1
4
 1 -1
 -1 1
